(set-option :produce-proofs true)
(set-logic AUFLIRA)
(declare-fun x1 () Int)
(declare-fun x2 () Int)
(declare-fun c1 () Int)
(declare-fun c2 () Int)
(assert (not (=> (and (< x1 c1) (> x2 c2)) (< (- x1 x2) (- c1 c2)))))
(check-sat)
(exit)
